\* LP2 *\
Maximize
Objective: 100 L + 70 N
Subject To
Constraint_1: 2.5 L + 2.25 N <= 900
Constraint_2: 0.5 L + N <= 300
Constraint_3: 2 L + N <= 600
Constraint_4: - 0.666666666667 L + 0.333333333333 N <= 0
Constraint_5: 0.666666666667 L - 0.333333333333 N <= 0
End
